c
c Generated WCNF file
c
p wcnf 254 1200 49412
49412 23 0
49412 -24 1 0
49412 -24 2 0
49412 24 -1 -2 0
49412 -25 1 0
49412 -25 3 0
49412 25 -1 -3 0
49412 -26 1 0
49412 -26 4 0
49412 26 -1 -4 0
49412 -27 1 0
49412 -27 5 0
49412 27 -1 -5 0
49412 -28 1 0
49412 -28 6 0
49412 28 -1 -6 0
49412 -29 1 0
49412 -29 7 0
49412 29 -1 -7 0
49412 -30 1 0
49412 -30 8 0
49412 30 -1 -8 0
49412 -31 1 0
49412 -31 9 0
49412 31 -1 -9 0
49412 -32 1 0
49412 -32 10 0
49412 32 -1 -10 0
49412 -33 1 0
49412 -33 11 0
49412 33 -1 -11 0
49412 -34 1 0
49412 -34 12 0
49412 34 -1 -12 0
49412 -35 1 0
49412 -35 13 0
49412 35 -1 -13 0
49412 -36 1 0
49412 -36 14 0
49412 36 -1 -14 0
49412 -37 1 0
49412 -37 15 0
49412 37 -1 -15 0
49412 -38 1 0
49412 -38 16 0
49412 38 -1 -16 0
49412 -39 1 0
49412 -39 17 0
49412 39 -1 -17 0
49412 -40 1 0
49412 -40 18 0
49412 40 -1 -18 0
49412 -41 1 0
49412 -41 19 0
49412 41 -1 -19 0
49412 -42 1 0
49412 -42 20 0
49412 42 -1 -20 0
49412 -43 1 0
49412 -43 21 0
49412 43 -1 -21 0
49412 -44 1 0
49412 -44 22 0
49412 44 -1 -22 0
49412 -45 2 0
49412 -45 3 0
49412 45 -2 -3 0
49412 -46 2 0
49412 -46 4 0
49412 46 -2 -4 0
49412 -47 2 0
49412 -47 5 0
49412 47 -2 -5 0
49412 -48 2 0
49412 -48 6 0
49412 48 -2 -6 0
49412 -49 2 0
49412 -49 7 0
49412 49 -2 -7 0
49412 -50 2 0
49412 -50 8 0
49412 50 -2 -8 0
49412 -51 2 0
49412 -51 9 0
49412 51 -2 -9 0
49412 -52 2 0
49412 -52 10 0
49412 52 -2 -10 0
49412 -53 2 0
49412 -53 11 0
49412 53 -2 -11 0
49412 -54 2 0
49412 -54 12 0
49412 54 -2 -12 0
49412 -55 2 0
49412 -55 13 0
49412 55 -2 -13 0
49412 -56 2 0
49412 -56 14 0
49412 56 -2 -14 0
49412 -57 2 0
49412 -57 15 0
49412 57 -2 -15 0
49412 -58 2 0
49412 -58 16 0
49412 58 -2 -16 0
49412 -59 2 0
49412 -59 17 0
49412 59 -2 -17 0
49412 -60 2 0
49412 -60 18 0
49412 60 -2 -18 0
49412 -61 2 0
49412 -61 19 0
49412 61 -2 -19 0
49412 -62 2 0
49412 -62 20 0
49412 62 -2 -20 0
49412 -63 2 0
49412 -63 21 0
49412 63 -2 -21 0
49412 -64 2 0
49412 -64 22 0
49412 64 -2 -22 0
49412 -65 3 0
49412 -65 4 0
49412 65 -3 -4 0
49412 -66 3 0
49412 -66 5 0
49412 66 -3 -5 0
49412 -67 3 0
49412 -67 6 0
49412 67 -3 -6 0
49412 -68 3 0
49412 -68 7 0
49412 68 -3 -7 0
49412 -69 3 0
49412 -69 8 0
49412 69 -3 -8 0
49412 -70 3 0
49412 -70 9 0
49412 70 -3 -9 0
49412 -71 3 0
49412 -71 10 0
49412 71 -3 -10 0
49412 -72 3 0
49412 -72 11 0
49412 72 -3 -11 0
49412 -73 3 0
49412 -73 12 0
49412 73 -3 -12 0
49412 -74 3 0
49412 -74 13 0
49412 74 -3 -13 0
49412 -75 3 0
49412 -75 14 0
49412 75 -3 -14 0
49412 -76 3 0
49412 -76 15 0
49412 76 -3 -15 0
49412 -77 3 0
49412 -77 16 0
49412 77 -3 -16 0
49412 -78 3 0
49412 -78 17 0
49412 78 -3 -17 0
49412 -79 3 0
49412 -79 18 0
49412 79 -3 -18 0
49412 -80 3 0
49412 -80 19 0
49412 80 -3 -19 0
49412 -81 3 0
49412 -81 20 0
49412 81 -3 -20 0
49412 -82 3 0
49412 -82 21 0
49412 82 -3 -21 0
49412 -83 3 0
49412 -83 22 0
49412 83 -3 -22 0
49412 -84 4 0
49412 -84 5 0
49412 84 -4 -5 0
49412 -85 4 0
49412 -85 6 0
49412 85 -4 -6 0
49412 -86 4 0
49412 -86 7 0
49412 86 -4 -7 0
49412 -87 4 0
49412 -87 8 0
49412 87 -4 -8 0
49412 -88 4 0
49412 -88 9 0
49412 88 -4 -9 0
49412 -89 4 0
49412 -89 10 0
49412 89 -4 -10 0
49412 -90 4 0
49412 -90 11 0
49412 90 -4 -11 0
49412 -91 4 0
49412 -91 12 0
49412 91 -4 -12 0
49412 -92 4 0
49412 -92 13 0
49412 92 -4 -13 0
49412 -93 4 0
49412 -93 14 0
49412 93 -4 -14 0
49412 -94 4 0
49412 -94 15 0
49412 94 -4 -15 0
49412 -95 4 0
49412 -95 16 0
49412 95 -4 -16 0
49412 -96 4 0
49412 -96 17 0
49412 96 -4 -17 0
49412 -97 4 0
49412 -97 18 0
49412 97 -4 -18 0
49412 -98 4 0
49412 -98 19 0
49412 98 -4 -19 0
49412 -99 4 0
49412 -99 20 0
49412 99 -4 -20 0
49412 -100 4 0
49412 -100 21 0
49412 100 -4 -21 0
49412 -101 4 0
49412 -101 22 0
49412 101 -4 -22 0
49412 -102 5 0
49412 -102 6 0
49412 102 -5 -6 0
49412 -103 5 0
49412 -103 7 0
49412 103 -5 -7 0
49412 -104 5 0
49412 -104 8 0
49412 104 -5 -8 0
49412 -105 5 0
49412 -105 9 0
49412 105 -5 -9 0
49412 -106 5 0
49412 -106 10 0
49412 106 -5 -10 0
49412 -107 5 0
49412 -107 11 0
49412 107 -5 -11 0
49412 -108 5 0
49412 -108 12 0
49412 108 -5 -12 0
49412 -109 5 0
49412 -109 13 0
49412 109 -5 -13 0
49412 -110 5 0
49412 -110 14 0
49412 110 -5 -14 0
49412 -111 5 0
49412 -111 15 0
49412 111 -5 -15 0
49412 -112 5 0
49412 -112 16 0
49412 112 -5 -16 0
49412 -113 5 0
49412 -113 17 0
49412 113 -5 -17 0
49412 -114 5 0
49412 -114 18 0
49412 114 -5 -18 0
49412 -115 5 0
49412 -115 19 0
49412 115 -5 -19 0
49412 -116 5 0
49412 -116 20 0
49412 116 -5 -20 0
49412 -117 5 0
49412 -117 21 0
49412 117 -5 -21 0
49412 -118 5 0
49412 -118 22 0
49412 118 -5 -22 0
49412 -119 6 0
49412 -119 7 0
49412 119 -6 -7 0
49412 -120 6 0
49412 -120 8 0
49412 120 -6 -8 0
49412 -121 6 0
49412 -121 9 0
49412 121 -6 -9 0
49412 -122 6 0
49412 -122 10 0
49412 122 -6 -10 0
49412 -123 6 0
49412 -123 11 0
49412 123 -6 -11 0
49412 -124 6 0
49412 -124 12 0
49412 124 -6 -12 0
49412 -125 6 0
49412 -125 13 0
49412 125 -6 -13 0
49412 -126 6 0
49412 -126 14 0
49412 126 -6 -14 0
49412 -127 6 0
49412 -127 15 0
49412 127 -6 -15 0
49412 -128 6 0
49412 -128 16 0
49412 128 -6 -16 0
49412 -129 6 0
49412 -129 17 0
49412 129 -6 -17 0
49412 -130 6 0
49412 -130 18 0
49412 130 -6 -18 0
49412 -131 6 0
49412 -131 19 0
49412 131 -6 -19 0
49412 -132 6 0
49412 -132 20 0
49412 132 -6 -20 0
49412 -133 6 0
49412 -133 21 0
49412 133 -6 -21 0
49412 -134 6 0
49412 -134 22 0
49412 134 -6 -22 0
49412 -135 7 0
49412 -135 8 0
49412 135 -7 -8 0
49412 -136 7 0
49412 -136 9 0
49412 136 -7 -9 0
49412 -137 7 0
49412 -137 10 0
49412 137 -7 -10 0
49412 -138 7 0
49412 -138 11 0
49412 138 -7 -11 0
49412 -139 7 0
49412 -139 12 0
49412 139 -7 -12 0
49412 -140 7 0
49412 -140 13 0
49412 140 -7 -13 0
49412 -141 7 0
49412 -141 14 0
49412 141 -7 -14 0
49412 -142 7 0
49412 -142 15 0
49412 142 -7 -15 0
49412 -143 7 0
49412 -143 16 0
49412 143 -7 -16 0
49412 -144 7 0
49412 -144 17 0
49412 144 -7 -17 0
49412 -145 7 0
49412 -145 18 0
49412 145 -7 -18 0
49412 -146 7 0
49412 -146 19 0
49412 146 -7 -19 0
49412 -147 7 0
49412 -147 20 0
49412 147 -7 -20 0
49412 -148 7 0
49412 -148 21 0
49412 148 -7 -21 0
49412 -149 7 0
49412 -149 22 0
49412 149 -7 -22 0
49412 -150 8 0
49412 -150 9 0
49412 150 -8 -9 0
49412 -151 8 0
49412 -151 10 0
49412 151 -8 -10 0
49412 -152 8 0
49412 -152 11 0
49412 152 -8 -11 0
49412 -153 8 0
49412 -153 12 0
49412 153 -8 -12 0
49412 -154 8 0
49412 -154 13 0
49412 154 -8 -13 0
49412 -155 8 0
49412 -155 14 0
49412 155 -8 -14 0
49412 -156 8 0
49412 -156 15 0
49412 156 -8 -15 0
49412 -157 8 0
49412 -157 16 0
49412 157 -8 -16 0
49412 -158 8 0
49412 -158 17 0
49412 158 -8 -17 0
49412 -159 8 0
49412 -159 18 0
49412 159 -8 -18 0
49412 -160 8 0
49412 -160 19 0
49412 160 -8 -19 0
49412 -161 8 0
49412 -161 20 0
49412 161 -8 -20 0
49412 -162 8 0
49412 -162 21 0
49412 162 -8 -21 0
49412 -163 8 0
49412 -163 22 0
49412 163 -8 -22 0
49412 -164 9 0
49412 -164 10 0
49412 164 -9 -10 0
49412 -165 9 0
49412 -165 11 0
49412 165 -9 -11 0
49412 -166 9 0
49412 -166 12 0
49412 166 -9 -12 0
49412 -167 9 0
49412 -167 13 0
49412 167 -9 -13 0
49412 -168 9 0
49412 -168 14 0
49412 168 -9 -14 0
49412 -169 9 0
49412 -169 15 0
49412 169 -9 -15 0
49412 -170 9 0
49412 -170 16 0
49412 170 -9 -16 0
49412 -171 9 0
49412 -171 17 0
49412 171 -9 -17 0
49412 -172 9 0
49412 -172 18 0
49412 172 -9 -18 0
49412 -173 9 0
49412 -173 19 0
49412 173 -9 -19 0
49412 -174 9 0
49412 -174 20 0
49412 174 -9 -20 0
49412 -175 9 0
49412 -175 21 0
49412 175 -9 -21 0
49412 -176 9 0
49412 -176 22 0
49412 176 -9 -22 0
49412 -177 10 0
49412 -177 11 0
49412 177 -10 -11 0
49412 -178 10 0
49412 -178 12 0
49412 178 -10 -12 0
49412 -179 10 0
49412 -179 13 0
49412 179 -10 -13 0
49412 -180 10 0
49412 -180 14 0
49412 180 -10 -14 0
49412 -181 10 0
49412 -181 15 0
49412 181 -10 -15 0
49412 -182 10 0
49412 -182 16 0
49412 182 -10 -16 0
49412 -183 10 0
49412 -183 17 0
49412 183 -10 -17 0
49412 -184 10 0
49412 -184 18 0
49412 184 -10 -18 0
49412 -185 10 0
49412 -185 19 0
49412 185 -10 -19 0
49412 -186 10 0
49412 -186 20 0
49412 186 -10 -20 0
49412 -187 10 0
49412 -187 21 0
49412 187 -10 -21 0
49412 -188 10 0
49412 -188 22 0
49412 188 -10 -22 0
49412 -189 11 0
49412 -189 12 0
49412 189 -11 -12 0
49412 -190 11 0
49412 -190 13 0
49412 190 -11 -13 0
49412 -191 11 0
49412 -191 14 0
49412 191 -11 -14 0
49412 -192 11 0
49412 -192 15 0
49412 192 -11 -15 0
49412 -193 11 0
49412 -193 16 0
49412 193 -11 -16 0
49412 -194 11 0
49412 -194 17 0
49412 194 -11 -17 0
49412 -195 11 0
49412 -195 18 0
49412 195 -11 -18 0
49412 -196 11 0
49412 -196 19 0
49412 196 -11 -19 0
49412 -197 11 0
49412 -197 20 0
49412 197 -11 -20 0
49412 -198 11 0
49412 -198 21 0
49412 198 -11 -21 0
49412 -199 11 0
49412 -199 22 0
49412 199 -11 -22 0
49412 -200 12 0
49412 -200 13 0
49412 200 -12 -13 0
49412 -201 12 0
49412 -201 14 0
49412 201 -12 -14 0
49412 -202 12 0
49412 -202 15 0
49412 202 -12 -15 0
49412 -203 12 0
49412 -203 16 0
49412 203 -12 -16 0
49412 -204 12 0
49412 -204 17 0
49412 204 -12 -17 0
49412 -205 12 0
49412 -205 18 0
49412 205 -12 -18 0
49412 -206 12 0
49412 -206 19 0
49412 206 -12 -19 0
49412 -207 12 0
49412 -207 20 0
49412 207 -12 -20 0
49412 -208 12 0
49412 -208 21 0
49412 208 -12 -21 0
49412 -209 12 0
49412 -209 22 0
49412 209 -12 -22 0
49412 -210 13 0
49412 -210 14 0
49412 210 -13 -14 0
49412 -211 13 0
49412 -211 15 0
49412 211 -13 -15 0
49412 -212 13 0
49412 -212 16 0
49412 212 -13 -16 0
49412 -213 13 0
49412 -213 17 0
49412 213 -13 -17 0
49412 -214 13 0
49412 -214 18 0
49412 214 -13 -18 0
49412 -215 13 0
49412 -215 19 0
49412 215 -13 -19 0
49412 -216 13 0
49412 -216 20 0
49412 216 -13 -20 0
49412 -217 13 0
49412 -217 21 0
49412 217 -13 -21 0
49412 -218 13 0
49412 -218 22 0
49412 218 -13 -22 0
49412 -219 14 0
49412 -219 15 0
49412 219 -14 -15 0
49412 -220 14 0
49412 -220 16 0
49412 220 -14 -16 0
49412 -221 14 0
49412 -221 17 0
49412 221 -14 -17 0
49412 -222 14 0
49412 -222 18 0
49412 222 -14 -18 0
49412 -223 14 0
49412 -223 19 0
49412 223 -14 -19 0
49412 -224 14 0
49412 -224 20 0
49412 224 -14 -20 0
49412 -225 14 0
49412 -225 21 0
49412 225 -14 -21 0
49412 -226 14 0
49412 -226 22 0
49412 226 -14 -22 0
49412 -227 15 0
49412 -227 16 0
49412 227 -15 -16 0
49412 -228 15 0
49412 -228 17 0
49412 228 -15 -17 0
49412 -229 15 0
49412 -229 18 0
49412 229 -15 -18 0
49412 -230 15 0
49412 -230 19 0
49412 230 -15 -19 0
49412 -231 15 0
49412 -231 20 0
49412 231 -15 -20 0
49412 -232 15 0
49412 -232 21 0
49412 232 -15 -21 0
49412 -233 15 0
49412 -233 22 0
49412 233 -15 -22 0
49412 -234 16 0
49412 -234 17 0
49412 234 -16 -17 0
49412 -235 16 0
49412 -235 18 0
49412 235 -16 -18 0
49412 -236 16 0
49412 -236 19 0
49412 236 -16 -19 0
49412 -237 16 0
49412 -237 20 0
49412 237 -16 -20 0
49412 -238 16 0
49412 -238 21 0
49412 238 -16 -21 0
49412 -239 16 0
49412 -239 22 0
49412 239 -16 -22 0
49412 -240 17 0
49412 -240 18 0
49412 240 -17 -18 0
49412 -241 17 0
49412 -241 19 0
49412 241 -17 -19 0
49412 -242 17 0
49412 -242 20 0
49412 242 -17 -20 0
49412 -243 17 0
49412 -243 21 0
49412 243 -17 -21 0
49412 -244 17 0
49412 -244 22 0
49412 244 -17 -22 0
49412 -245 18 0
49412 -245 19 0
49412 245 -18 -19 0
49412 -246 18 0
49412 -246 20 0
49412 246 -18 -20 0
49412 -247 18 0
49412 -247 21 0
49412 247 -18 -21 0
49412 -248 18 0
49412 -248 22 0
49412 248 -18 -22 0
49412 -249 19 0
49412 -249 20 0
49412 249 -19 -20 0
49412 -250 19 0
49412 -250 21 0
49412 250 -19 -21 0
49412 -251 19 0
49412 -251 22 0
49412 251 -19 -22 0
49412 -252 20 0
49412 -252 21 0
49412 252 -20 -21 0
49412 -253 20 0
49412 -253 22 0
49412 253 -20 -22 0
49412 -254 21 0
49412 -254 22 0
49412 254 -21 -22 0
20104 1 0
49402 -1 0
50642 24 0
49402 -24 0
33260 25 0
49402 -25 0
38938 26 0
49402 -26 0
56606 27 0
49402 -27 0
34758 28 0
49402 -28 0
42252 29 0
49402 -29 0
38078 30 0
49402 -30 0
50716 31 0
49402 -31 0
62870 32 0
49402 -32 0
60424 33 0
49402 -33 0
51188 34 0
49402 -34 0
46086 35 0
49402 -35 0
41034 36 0
49402 -36 0
54904 37 0
49402 -37 0
48906 38 0
49402 -38 0
57026 39 0
49402 -39 0
53084 40 0
49402 -40 0
49998 41 0
49402 -41 0
47656 42 0
49402 -42 0
47876 43 0
49402 -43 0
50718 44 0
49402 -44 0
30110 2 0
49402 -2 0
57714 45 0
49402 -45 0
55286 46 0
49402 -46 0
46374 47 0
49402 -47 0
46186 48 0
49402 -48 0
53304 49 0
49402 -49 0
52742 50 0
49402 -50 0
49296 51 0
49402 -51 0
42220 52 0
49402 -52 0
51644 53 0
49402 -53 0
49152 54 0
49402 -54 0
46264 55 0
49402 -55 0
49802 56 0
49402 -56 0
56294 57 0
49402 -57 0
53262 58 0
49402 -58 0
46424 59 0
49402 -59 0
49324 60 0
49402 -60 0
50416 61 0
49402 -61 0
46992 62 0
49402 -62 0
47738 63 0
49402 -63 0
46488 64 0
49402 -64 0
30845 3 0
49402 -3 0
51270 65 0
49402 -65 0
50692 66 0
49402 -66 0
48272 67 0
49402 -67 0
47790 68 0
49402 -68 0
54544 69 0
49402 -69 0
48928 70 0
49402 -70 0
64546 71 0
49402 -71 0
47138 72 0
49402 -72 0
50718 73 0
49402 -73 0
51168 74 0
49402 -74 0
50152 75 0
49402 -75 0
48240 76 0
49402 -76 0
46792 77 0
49402 -77 0
52978 78 0
49402 -78 0
51836 79 0
49402 -79 0
49416 80 0
49402 -80 0
46870 81 0
49402 -81 0
50860 82 0
49402 -82 0
48180 83 0
49402 -83 0
32081 4 0
49402 -4 0
52182 84 0
49402 -84 0
57516 85 0
49402 -85 0
49498 86 0
49402 -86 0
42456 87 0
49402 -87 0
40094 88 0
49402 -88 0
58202 89 0
49402 -89 0
52726 90 0
49402 -90 0
44860 91 0
49402 -91 0
52194 92 0
49402 -92 0
41340 93 0
49402 -93 0
47330 94 0
49402 -94 0
48680 95 0
49402 -95 0
52338 96 0
49402 -96 0
49974 97 0
49402 -97 0
48884 98 0
49402 -98 0
50050 99 0
49402 -99 0
50492 100 0
49402 -100 0
52316 101 0
49402 -101 0
28326 5 0
49402 -5 0
53216 102 0
49402 -102 0
46660 103 0
49402 -103 0
48780 104 0
49402 -104 0
47046 105 0
49402 -105 0
43474 106 0
49402 -106 0
53548 107 0
49402 -107 0
53362 108 0
49402 -108 0
53348 109 0
49402 -109 0
54986 110 0
49402 -110 0
52810 111 0
49402 -111 0
46302 112 0
49402 -112 0
46458 113 0
49402 -113 0
55458 114 0
49402 -114 0
49986 115 0
49402 -115 0
50284 116 0
49402 -116 0
47424 117 0
49402 -117 0
46582 118 0
49402 -118 0
33008 6 0
49402 -6 0
36684 119 0
49402 -119 0
49792 120 0
49402 -120 0
54588 121 0
49402 -121 0
48226 122 0
49402 -122 0
56624 123 0
49402 -123 0
52382 124 0
49402 -124 0
40668 125 0
49402 -125 0
50506 126 0
49402 -126 0
61960 127 0
49402 -127 0
47676 128 0
49402 -128 0
52524 129 0
49402 -129 0
51160 130 0
49402 -130 0
49530 131 0
49402 -131 0
48056 132 0
49402 -132 0
49260 133 0
49402 -133 0
47898 134 0
49402 -134 0
36210 7 0
49402 -7 0
46374 135 0
49402 -135 0
55428 136 0
49402 -136 0
50166 137 0
49402 -137 0
58422 138 0
49402 -138 0
44034 139 0
49402 -139 0
54100 140 0
49402 -140 0
42886 141 0
49402 -141 0
47526 142 0
49402 -142 0
47732 143 0
49402 -143 0
59066 144 0
49402 -144 0
50142 145 0
49402 -145 0
49708 146 0
49402 -146 0
48416 147 0
49402 -147 0
48474 148 0
49402 -148 0
53632 149 0
49402 -149 0
36407 8 0
49402 -8 0
46348 150 0
49402 -150 0
53632 151 0
49402 -151 0
65168 152 0
49402 -152 0
47206 153 0
49402 -153 0
47802 154 0
49402 -154 0
39500 155 0
49402 -155 0
45960 156 0
49402 -156 0
50262 157 0
49402 -157 0
52454 158 0
49402 -158 0
52172 159 0
49402 -159 0
49910 160 0
49402 -160 0
50828 161 0
49402 -161 0
46848 162 0
49402 -162 0
53726 163 0
49402 -163 0
41158 9 0
49402 -9 0
48540 164 0
49402 -164 0
55990 165 0
49402 -165 0
43744 166 0
49402 -166 0
42260 167 0
49402 -167 0
48526 168 0
49402 -168 0
56882 169 0
49402 -169 0
48878 170 0
49402 -170 0
45706 171 0
49402 -171 0
47638 172 0
49402 -172 0
48556 173 0
49402 -173 0
52260 174 0
49402 -174 0
50378 175 0
49402 -175 0
51000 176 0
49402 -176 0
42407 10 0
49402 -10 0
45290 177 0
49402 -177 0
47970 178 0
49402 -178 0
52758 179 0
49402 -179 0
61436 180 0
49402 -180 0
57550 181 0
49402 -181 0
46688 182 0
49402 -182 0
43008 183 0
49402 -183 0
43312 184 0
49402 -184 0
47836 185 0
49402 -185 0
53574 186 0
49402 -186 0
51928 187 0
49402 -187 0
48744 188 0
49402 -188 0
44203 11 0
49402 -11 0
54742 189 0
49402 -189 0
55618 190 0
49402 -190 0
60726 191 0
49402 -191 0
47218 192 0
49402 -192 0
47890 193 0
49402 -193 0
45042 194 0
49402 -194 0
44030 195 0
49402 -195 0
48054 196 0
49402 -196 0
50908 197 0
49402 -197 0
52864 198 0
49402 -198 0
46770 199 0
49402 -199 0
47124 12 0
49402 -12 0
49624 200 0
49402 -200 0
47180 201 0
49402 -201 0
46922 202 0
49402 -202 0
49716 203 0
49402 -203 0
56536 204 0
49402 -204 0
43754 205 0
49402 -205 0
49112 206 0
49402 -206 0
49248 207 0
49402 -207 0
49814 208 0
49402 -208 0
53820 209 0
49402 -209 0
33221 13 0
49402 -13 0
48626 210 0
49402 -210 0
54184 211 0
49402 -211 0
54702 212 0
49402 -212 0
47858 213 0
49402 -213 0
52732 214 0
49402 -214 0
51262 215 0
49402 -215 0
46810 216 0
49402 -216 0
44962 217 0
49402 -217 0
46018 218 0
49402 -218 0
37414 14 0
49402 -14 0
42294 219 0
49402 -219 0
54326 220 0
49402 -220 0
54876 221 0
49402 -221 0
51608 222 0
49402 -222 0
50648 223 0
49402 -223 0
47054 224 0
49402 -224 0
46724 225 0
49402 -225 0
53444 226 0
49402 -226 0
38304 15 0
49402 -15 0
53842 227 0
49402 -227 0
53578 228 0
49402 -228 0
49150 229 0
49402 -229 0
50614 230 0
49402 -230 0
47294 231 0
49402 -231 0
47090 232 0
49402 -232 0
52598 233 0
49402 -233 0
48101 16 0
49402 -16 0
49634 234 0
49402 -234 0
49276 235 0
49402 -235 0
48210 236 0
49402 -236 0
51760 237 0
49402 -237 0
51672 238 0
49402 -238 0
49778 239 0
49402 -239 0
45599 17 0
49402 -17 0
47722 240 0
49402 -240 0
48204 241 0
49402 -241 0
52670 242 0
49402 -242 0
52168 243 0
49402 -243 0
47052 244 0
49402 -244 0
55440 18 0
49402 -18 0
47764 245 0
49402 -245 0
52252 246 0
49402 -246 0
52734 247 0
49402 -247 0
52504 248 0
49402 -248 0
51439 19 0
49402 -19 0
50726 249 0
49402 -249 0
50812 250 0
49402 -250 0
50060 251 0
49402 -251 0
43077 20 0
49402 -20 0
47536 252 0
49402 -252 0
47334 253 0
49402 -253 0
42834 21 0
49402 -21 0
48744 254 0
49402 -254 0
43339 22 0
49402 -22 0
